(set-info :source |printed by MathSAT|)
(declare-fun call_peterson.ite71 () Int)
(declare-fun call_peterson.flby4 () Int)
(declare-fun env () Bool)
(declare-fun call_peterson.ite28 () Int)
(declare-fun call_peterson.ite31 () Int)
(declare-fun call_peterson.x8 () Int)
(declare-fun param_e07 () Bool)
(declare-fun call_peterson.ite19 () Int)
(declare-fun call_peterson.ite60 () Int)
(declare-fun call_peterson.ite59 () Int)
(declare-fun call_peterson.ite55 () Int)
(declare-fun call_peterson.ite20 () Int)
(declare-fun x4 () Int)
(declare-fun call_peterson.x11 () Int)
(declare-fun call_peterson.flby () Int)
(declare-fun call_peterson.ite17 () Int)
(declare-fun call_peterson.ite65 () Int)
(declare-fun call_peterson.ite22 () Int)
(declare-fun call_peterson.ite40 () Int)
(declare-fun call_peterson.ite32 () Int)
(declare-fun call_Sofar.Sofar () Bool)
(declare-fun x7 () Int)
(declare-fun call_peterson.ite3 () Int)
(declare-fun call_peterson.flby14 () Int)
(declare-fun call_peterson.flby11 () Int)
(declare-fun call_peterson.flby8 () Int)
(declare-fun call_peterson.ite53 () Int)
(declare-fun call_peterson.ite63 () Int)
(declare-fun call_peterson.ite9 () Int)
(declare-fun call_peterson.ite72 () Int)
(declare-fun call_peterson.ite45 () Int)
(declare-fun x10 () Int)
(declare-fun call_peterson.ite12 () Int)
(declare-fun param_e10 () Bool)
(declare-fun call_peterson.x4 () Int)
(declare-fun call_peterson.ite43 () Int)
(declare-fun call_peterson.ite61 () Int)
(declare-fun call_peterson.ite24 () Int)
(declare-fun call_peterson.flby5 () Int)
(declare-fun call_peterson.ite39 () Int)
(declare-fun call_peterson.ite70 () Int)
(declare-fun param_e02 () Bool)
(declare-fun call_peterson.ite58 () Int)
(declare-fun call_peterson.ite56 () Int)
(declare-fun call_peterson.x7 () Int)
(declare-fun call_peterson.ite49 () Int)
(declare-fun call_peterson.ite46 () Int)
(declare-fun param_e04 () Bool)
(declare-fun call_peterson.ite13 () Int)
(declare-fun x3 () Int)
(declare-fun param_e06 () Bool)
(declare-fun call_peterson.x1 () Int)
(declare-fun call_peterson.x10 () Int)
(declare-fun param_e12 () Bool)
(declare-fun call_peterson.flby12 () Int)
(declare-fun call_peterson.ite30 () Int)
(declare-fun call_peterson.ite () Int)
(declare-fun call_peterson.ite62 () Int)
(declare-fun x6 () Int)
(declare-fun call_peterson.ite48 () Int)
(declare-fun call_excludes12.excludes () Bool)
(declare-fun call_peterson.ite68 () Int)
(declare-fun param_e11 () Bool)
(declare-fun call_peterson.ite6 () Int)
(declare-fun param_e09 () Bool)
(declare-fun call_peterson.ite38 () Int)
(declare-fun x13 () Int)
(declare-fun call_peterson.ite21 () Int)
(declare-fun x9 () Int)
(declare-fun call_peterson.flby10 () Int)
(declare-fun call_peterson.ite18 () Int)
(declare-fun call_peterson.ite66 () Int)
(declare-fun call_peterson.ite35 () Int)
(declare-fun call_peterson.ite41 () Int)
(declare-fun call_peterson.flby2 () Int)
(declare-fun call_peterson.x3 () Int)
(declare-fun param_e03 () Bool)
(declare-fun call_peterson.ite26 () Int)
(declare-fun param_e05 () Bool)
(declare-fun call_peterson.ite50 () Int)
(declare-fun call_peterson.ite52 () Int)
(declare-fun call_peterson.ite2 () Int)
(declare-fun call_peterson.ite64 () Int)
(declare-fun call_peterson.ite4 () Int)
(declare-fun call_peterson.ite34 () Int)
(declare-fun call_peterson.ite10 () Int)
(declare-fun call_peterson.x6 () Int)
(declare-fun call_peterson.ite33 () Int)
(declare-fun call_peterson.flby7 () Int)
(declare-fun call_peterson.ite51 () Int)
(declare-fun call_peterson.ite11 () Int)
(declare-fun call_peterson.ite42 () Int)
(declare-fun call_peterson.x13 () Int)
(declare-fun call_peterson.ite7 () Int)
(declare-fun x2 () Int)
(declare-fun call_peterson.flby6 () Int)
(declare-fun call_peterson.x9 () Int)
(declare-fun call_peterson.ite27 () Int)
(declare-fun call_peterson.flby9 () Int)
(declare-fun call_peterson.ite8 () Int)
(declare-fun param_e08 () Bool)
(declare-fun call_peterson.ite54 () Int)
(declare-fun call_peterson.flby3 () Int)
(declare-fun call_peterson.ite25 () Int)
(declare-fun x5 () Int)
(declare-fun _OK_ () Bool)
(declare-fun call_peterson.ite14 () Int)
(declare-fun x0 () Int)
(declare-fun call_peterson.ite5 () Int)
(declare-fun x12 () Int)
(declare-fun call_peterson.ite37 () Int)
(declare-fun x8 () Int)
(declare-fun call_peterson.flby13 () Int)
(declare-fun call_peterson.ite44 () Int)
(declare-fun call_peterson.ite23 () Int)
(declare-fun call_peterson.x2 () Int)
(declare-fun call_peterson.ite29 () Int)
(declare-fun call_peterson.ite16 () Int)
(declare-fun x11 () Int)
(declare-fun call_peterson.ite36 () Int)
(declare-fun call_peterson.x0 () Int)
(declare-fun call_peterson.x5 () Int)
(declare-fun call_peterson.ite67 () Int)
(declare-fun call_peterson.ite15 () Int)
(declare-fun call_Sofar.flby () Bool)
(declare-fun call_peterson.ite69 () Int)
(declare-fun x1 () Int)
(declare-fun call_peterson.ite57 () Int)
(declare-fun param_e01 () Bool)
(declare-fun call_peterson.x12 () Int)
(declare-fun call_peterson.ite47 () Int)
(define-fun .def_1964 () Bool (= call_Sofar.flby call_Sofar.Sofar))
(define-fun .def_1632 () Bool (not param_e02))
(define-fun .def_1590 () Bool (not param_e01))
(define-fun .def_1862 () Bool (and .def_1590 .def_1632))
(define-fun .def_1483 () Bool (not param_e03))
(define-fun .def_1863 () Bool (and .def_1483 .def_1862))
(define-fun .def_1673 () Bool (not param_e04))
(define-fun .def_1864 () Bool (and .def_1673 .def_1863))
(define-fun .def_1490 () Bool (not param_e05))
(define-fun .def_1865 () Bool (and .def_1490 .def_1864))
(define-fun .def_1497 () Bool (not param_e06))
(define-fun .def_1866 () Bool (and .def_1497 .def_1865))
(define-fun .def_1713 () Bool (not param_e07))
(define-fun .def_1867 () Bool (and .def_1713 .def_1866))
(define-fun .def_1519 () Bool (not param_e08))
(define-fun .def_1868 () Bool (and .def_1519 .def_1867))
(define-fun .def_1531 () Bool (not param_e09))
(define-fun .def_1869 () Bool (and .def_1531 .def_1868))
(define-fun .def_1822 () Bool (not param_e10))
(define-fun .def_1870 () Bool (and .def_1822 .def_1869))
(define-fun .def_1476 () Bool (not param_e11))
(define-fun .def_1871 () Bool (and .def_1476 .def_1870))
(define-fun .def_1455 () Bool (not param_e12))
(define-fun .def_1949 () Bool (and .def_1455 .def_1871))
(define-fun .def_1938 () Bool (and param_e01 .def_1632))
(define-fun .def_1939 () Bool (and .def_1483 .def_1938))
(define-fun .def_1940 () Bool (and .def_1673 .def_1939))
(define-fun .def_1941 () Bool (and .def_1490 .def_1940))
(define-fun .def_1942 () Bool (and .def_1497 .def_1941))
(define-fun .def_1943 () Bool (and .def_1713 .def_1942))
(define-fun .def_1944 () Bool (and .def_1519 .def_1943))
(define-fun .def_1945 () Bool (and .def_1531 .def_1944))
(define-fun .def_1946 () Bool (and .def_1822 .def_1945))
(define-fun .def_1947 () Bool (and .def_1476 .def_1946))
(define-fun .def_1948 () Bool (and .def_1455 .def_1947))
(define-fun .def_1950 () Bool (or .def_1948 .def_1949))
(define-fun .def_1927 () Bool (and .def_1590 param_e02))
(define-fun .def_1928 () Bool (and .def_1483 .def_1927))
(define-fun .def_1929 () Bool (and .def_1673 .def_1928))
(define-fun .def_1930 () Bool (and .def_1490 .def_1929))
(define-fun .def_1931 () Bool (and .def_1497 .def_1930))
(define-fun .def_1932 () Bool (and .def_1713 .def_1931))
(define-fun .def_1933 () Bool (and .def_1519 .def_1932))
(define-fun .def_1934 () Bool (and .def_1531 .def_1933))
(define-fun .def_1935 () Bool (and .def_1822 .def_1934))
(define-fun .def_1936 () Bool (and .def_1476 .def_1935))
(define-fun .def_1937 () Bool (and .def_1455 .def_1936))
(define-fun .def_1951 () Bool (or .def_1937 .def_1950))
(define-fun .def_1917 () Bool (and param_e03 .def_1862))
(define-fun .def_1918 () Bool (and .def_1673 .def_1917))
(define-fun .def_1919 () Bool (and .def_1490 .def_1918))
(define-fun .def_1920 () Bool (and .def_1497 .def_1919))
(define-fun .def_1921 () Bool (and .def_1713 .def_1920))
(define-fun .def_1922 () Bool (and .def_1519 .def_1921))
(define-fun .def_1923 () Bool (and .def_1531 .def_1922))
(define-fun .def_1924 () Bool (and .def_1822 .def_1923))
(define-fun .def_1925 () Bool (and .def_1476 .def_1924))
(define-fun .def_1926 () Bool (and .def_1455 .def_1925))
(define-fun .def_1952 () Bool (or .def_1926 .def_1951))
(define-fun .def_1908 () Bool (and param_e04 .def_1863))
(define-fun .def_1909 () Bool (and .def_1490 .def_1908))
(define-fun .def_1910 () Bool (and .def_1497 .def_1909))
(define-fun .def_1911 () Bool (and .def_1713 .def_1910))
(define-fun .def_1912 () Bool (and .def_1519 .def_1911))
(define-fun .def_1913 () Bool (and .def_1531 .def_1912))
(define-fun .def_1914 () Bool (and .def_1822 .def_1913))
(define-fun .def_1915 () Bool (and .def_1476 .def_1914))
(define-fun .def_1916 () Bool (and .def_1455 .def_1915))
(define-fun .def_1953 () Bool (or .def_1916 .def_1952))
(define-fun .def_1900 () Bool (and param_e05 .def_1864))
(define-fun .def_1901 () Bool (and .def_1497 .def_1900))
(define-fun .def_1902 () Bool (and .def_1713 .def_1901))
(define-fun .def_1903 () Bool (and .def_1519 .def_1902))
(define-fun .def_1904 () Bool (and .def_1531 .def_1903))
(define-fun .def_1905 () Bool (and .def_1822 .def_1904))
(define-fun .def_1906 () Bool (and .def_1476 .def_1905))
(define-fun .def_1907 () Bool (and .def_1455 .def_1906))
(define-fun .def_1954 () Bool (or .def_1907 .def_1953))
(define-fun .def_1893 () Bool (and param_e06 .def_1865))
(define-fun .def_1894 () Bool (and .def_1713 .def_1893))
(define-fun .def_1895 () Bool (and .def_1519 .def_1894))
(define-fun .def_1896 () Bool (and .def_1531 .def_1895))
(define-fun .def_1897 () Bool (and .def_1822 .def_1896))
(define-fun .def_1898 () Bool (and .def_1476 .def_1897))
(define-fun .def_1899 () Bool (and .def_1455 .def_1898))
(define-fun .def_1955 () Bool (or .def_1899 .def_1954))
(define-fun .def_1887 () Bool (and param_e07 .def_1866))
(define-fun .def_1888 () Bool (and .def_1519 .def_1887))
(define-fun .def_1889 () Bool (and .def_1531 .def_1888))
(define-fun .def_1890 () Bool (and .def_1822 .def_1889))
(define-fun .def_1891 () Bool (and .def_1476 .def_1890))
(define-fun .def_1892 () Bool (and .def_1455 .def_1891))
(define-fun .def_1956 () Bool (or .def_1892 .def_1955))
(define-fun .def_1882 () Bool (and param_e08 .def_1867))
(define-fun .def_1883 () Bool (and .def_1531 .def_1882))
(define-fun .def_1884 () Bool (and .def_1822 .def_1883))
(define-fun .def_1885 () Bool (and .def_1476 .def_1884))
(define-fun .def_1886 () Bool (and .def_1455 .def_1885))
(define-fun .def_1957 () Bool (or .def_1886 .def_1956))
(define-fun .def_1878 () Bool (and param_e09 .def_1868))
(define-fun .def_1879 () Bool (and .def_1822 .def_1878))
(define-fun .def_1880 () Bool (and .def_1476 .def_1879))
(define-fun .def_1881 () Bool (and .def_1455 .def_1880))
(define-fun .def_1958 () Bool (or .def_1881 .def_1957))
(define-fun .def_1875 () Bool (and param_e10 .def_1869))
(define-fun .def_1876 () Bool (and .def_1476 .def_1875))
(define-fun .def_1877 () Bool (and .def_1455 .def_1876))
(define-fun .def_1959 () Bool (or .def_1877 .def_1958))
(define-fun .def_1873 () Bool (and param_e11 .def_1870))
(define-fun .def_1874 () Bool (and .def_1455 .def_1873))
(define-fun .def_1960 () Bool (or .def_1874 .def_1959))
(define-fun .def_1872 () Bool (and param_e12 .def_1871))
(define-fun .def_1961 () Bool (or .def_1872 .def_1960))
(define-fun .def_1962 () Bool (= call_excludes12.excludes .def_1961))
(define-fun .def_1860 () Bool (= call_peterson.flby14 call_peterson.x13))
(define-fun .def_1858 () Bool (= call_peterson.flby13 call_peterson.x12))
(define-fun .def_1856 () Bool (= call_peterson.flby12 call_peterson.x11))
(define-fun .def_1854 () Bool (= call_peterson.flby11 call_peterson.x10))
(define-fun .def_1852 () Bool (= call_peterson.flby10 call_peterson.x9))
(define-fun .def_1850 () Bool (= call_peterson.flby9 call_peterson.x8))
(define-fun .def_1848 () Bool (= call_peterson.flby8 call_peterson.x7))
(define-fun .def_1846 () Bool (= call_peterson.flby7 call_peterson.x6))
(define-fun .def_1844 () Bool (= call_peterson.flby6 call_peterson.x5))
(define-fun .def_1842 () Bool (= call_peterson.flby5 call_peterson.x4))
(define-fun .def_1840 () Bool (= call_peterson.flby4 call_peterson.x3))
(define-fun .def_1838 () Bool (= call_peterson.flby3 call_peterson.x2))
(define-fun .def_1836 () Bool (= call_peterson.flby2 call_peterson.x1))
(define-fun .def_1834 () Bool (= call_peterson.flby call_peterson.x0))
(define-fun .def_1830 () Bool (= call_peterson.ite71 call_peterson.ite72))
(define-fun .def_1831 () Bool (or param_e10 .def_1830))
(define-fun .def_1827 () Bool (= call_peterson.ite67 call_peterson.ite72))
(define-fun .def_1828 () Bool (or .def_1822 .def_1827))
(define-fun .def_1821 () Bool (= call_peterson.ite64 call_peterson.ite61))
(define-fun .def_1823 () Bool (or .def_1821 .def_1822))
(define-fun .def_1817 () Bool (= call_peterson.ite63 call_peterson.ite64))
(define-fun .def_1819 () Bool (or .def_1817 param_e10))
(define-fun .def_1824 () Bool (and .def_1819 .def_1823))
(define-fun .def_1829 () Bool (and .def_1824 .def_1828))
(define-fun .def_1832 () Bool (and .def_1829 .def_1831))
(define-fun .def_1813 () Bool (= call_peterson.ite65 call_peterson.ite60))
(define-fun .def_1814 () Bool (or .def_1531 .def_1813))
(define-fun .def_1810 () Bool (= call_peterson.ite65 call_peterson.ite64))
(define-fun .def_1811 () Bool (or param_e09 .def_1810))
(define-fun .def_1815 () Bool (and .def_1811 .def_1814))
(define-fun .def_1807 () Bool (= env call_Sofar.Sofar))
(define-fun .def_1804 () Bool (= x13 call_peterson.x13))
(define-fun .def_1800 () Bool (= x12 call_peterson.x12))
(define-fun .def_1794 () Bool (= call_peterson.ite66 call_peterson.ite65))
(define-fun .def_1795 () Bool (or param_e08 .def_1794))
(define-fun .def_1790 () Bool (= call_peterson.ite59 call_peterson.ite66))
(define-fun .def_1791 () Bool (or .def_1519 .def_1790))
(define-fun .def_1785 () Bool (= call_peterson.ite57 call_peterson.ite54))
(define-fun .def_1786 () Bool (or .def_1519 .def_1785))
(define-fun .def_1782 () Bool (= call_peterson.ite56 call_peterson.ite57))
(define-fun .def_1783 () Bool (or param_e08 .def_1782))
(define-fun .def_1787 () Bool (and .def_1783 .def_1786))
(define-fun .def_1792 () Bool (and .def_1787 .def_1791))
(define-fun .def_1796 () Bool (and .def_1792 .def_1795))
(define-fun .def_1780 () Bool (= x11 call_peterson.x11))
(define-fun .def_1776 () Bool (= x10 call_peterson.x10))
(define-fun .def_1772 () Bool (= x9 call_peterson.x9))
(define-fun .def_1768 () Bool (= x8 call_peterson.x8))
(define-fun .def_1764 () Bool (= x7 call_peterson.x7))
(define-fun .def_1760 () Bool (= x6 call_peterson.x6))
(define-fun .def_1756 () Bool (= x5 call_peterson.x5))
(define-fun .def_1752 () Bool (= x4 call_peterson.x4))
(define-fun .def_1748 () Bool (= x3 call_peterson.x3))
(define-fun .def_1744 () Bool (= x2 call_peterson.x2))
(define-fun .def_1738 () Bool (= call_peterson.ite58 call_peterson.ite57))
(define-fun .def_1739 () Bool (or param_e07 .def_1738))
(define-fun .def_1734 () Bool (= call_peterson.ite53 call_peterson.ite58))
(define-fun .def_1735 () Bool (or .def_1713 .def_1734))
(define-fun .def_1729 () Bool (= call_peterson.ite51 call_peterson.ite52))
(define-fun .def_1730 () Bool (or param_e07 .def_1729))
(define-fun .def_1726 () Bool (= call_peterson.ite49 call_peterson.ite52))
(define-fun .def_1727 () Bool (or .def_1713 .def_1726))
(define-fun .def_1721 () Bool (= call_peterson.ite47 call_peterson.ite48))
(define-fun .def_1722 () Bool (or param_e07 .def_1721))
(define-fun .def_1718 () Bool (= call_peterson.ite45 call_peterson.ite48))
(define-fun .def_1719 () Bool (or .def_1713 .def_1718))
(define-fun .def_1712 () Bool (= call_peterson.ite44 call_peterson.ite41))
(define-fun .def_1714 () Bool (or .def_1712 .def_1713))
(define-fun .def_1708 () Bool (= call_peterson.ite43 call_peterson.ite44))
(define-fun .def_1710 () Bool (or .def_1708 param_e07))
(define-fun .def_1715 () Bool (and .def_1710 .def_1714))
(define-fun .def_1720 () Bool (and .def_1715 .def_1719))
(define-fun .def_1723 () Bool (and .def_1720 .def_1722))
(define-fun .def_1728 () Bool (and .def_1723 .def_1727))
(define-fun .def_1731 () Bool (and .def_1728 .def_1730))
(define-fun .def_1736 () Bool (and .def_1731 .def_1735))
(define-fun .def_1740 () Bool (and .def_1736 .def_1739))
(define-fun .def_1705 () Bool (= x1 call_peterson.x1))
(define-fun .def_1702 () Bool (= x0 call_peterson.x0))
(define-fun .def_1696 () Bool (<= 0 x1))
(define-fun .def_1695 () Bool (not env))
(define-fun .def_1697 () Bool (or .def_1695 .def_1696))
(define-fun .def_1698 () Bool (= _OK_ .def_1697))
(define-fun .def_1689 () Bool (= call_peterson.ite23 call_peterson.ite20))
(define-fun .def_1690 () Bool (or .def_1490 .def_1689))
(define-fun .def_1686 () Bool (= call_peterson.ite22 call_peterson.ite23))
(define-fun .def_1687 () Bool (or param_e05 .def_1686))
(define-fun .def_1691 () Bool (and .def_1687 .def_1690))
(define-fun .def_1682 () Bool (= call_peterson.ite24 call_peterson.ite23))
(define-fun .def_1683 () Bool (or param_e04 .def_1682))
(define-fun .def_1678 () Bool (= call_peterson.ite19 call_peterson.ite24))
(define-fun .def_1679 () Bool (or .def_1673 .def_1678))
(define-fun .def_1672 () Bool (= call_peterson.ite16 call_peterson.ite13))
(define-fun .def_1674 () Bool (or .def_1672 .def_1673))
(define-fun .def_1668 () Bool (= call_peterson.ite15 call_peterson.ite16))
(define-fun .def_1670 () Bool (or .def_1668 param_e04))
(define-fun .def_1675 () Bool (and .def_1670 .def_1674))
(define-fun .def_1680 () Bool (and .def_1675 .def_1679))
(define-fun .def_1684 () Bool (and .def_1680 .def_1683))
(define-fun .def_1664 () Bool (= call_peterson.ite17 call_peterson.ite12))
(define-fun .def_1665 () Bool (or .def_1483 .def_1664))
(define-fun .def_1661 () Bool (= call_peterson.ite17 call_peterson.ite16))
(define-fun .def_1662 () Bool (or param_e03 .def_1661))
(define-fun .def_1666 () Bool (and .def_1662 .def_1665))
(define-fun .def_1656 () Bool (= call_peterson.ite35 call_peterson.ite36))
(define-fun .def_1657 () Bool (or param_e02 .def_1656))
(define-fun .def_1653 () Bool (= call_peterson.ite33 call_peterson.ite36))
(define-fun .def_1654 () Bool (or .def_1632 .def_1653))
(define-fun .def_1648 () Bool (= call_peterson.ite18 call_peterson.ite17))
(define-fun .def_1649 () Bool (or param_e02 .def_1648))
(define-fun .def_1644 () Bool (= call_peterson.ite11 call_peterson.ite18))
(define-fun .def_1645 () Bool (or .def_1632 .def_1644))
(define-fun .def_1639 () Bool (= call_peterson.ite8 call_peterson.ite9))
(define-fun .def_1640 () Bool (or param_e02 .def_1639))
(define-fun .def_1636 () Bool (= call_peterson.ite9 call_peterson.ite6))
(define-fun .def_1637 () Bool (or .def_1632 .def_1636))
(define-fun .def_1631 () Bool (= call_peterson.ite40 call_peterson.ite37))
(define-fun .def_1633 () Bool (or .def_1631 .def_1632))
(define-fun .def_1627 () Bool (= call_peterson.ite39 call_peterson.ite40))
(define-fun .def_1629 () Bool (or .def_1627 param_e02))
(define-fun .def_1634 () Bool (and .def_1629 .def_1633))
(define-fun .def_1638 () Bool (and .def_1634 .def_1637))
(define-fun .def_1641 () Bool (and .def_1638 .def_1640))
(define-fun .def_1646 () Bool (and .def_1641 .def_1645))
(define-fun .def_1650 () Bool (and .def_1646 .def_1649))
(define-fun .def_1655 () Bool (and .def_1650 .def_1654))
(define-fun .def_1658 () Bool (and .def_1655 .def_1657))
(define-fun .def_1622 () Bool (= call_peterson.ite71 call_peterson.ite68))
(define-fun .def_1623 () Bool (or .def_1476 .def_1622))
(define-fun .def_1619 () Bool (= call_peterson.ite70 call_peterson.ite71))
(define-fun .def_1620 () Bool (or param_e11 .def_1619))
(define-fun .def_1624 () Bool (and .def_1620 .def_1623))
(define-fun .def_1615 () Bool (= call_peterson.ite31 call_peterson.ite32))
(define-fun .def_1616 () Bool (or param_e01 .def_1615))
(define-fun .def_1612 () Bool (= call_peterson.ite29 call_peterson.ite32))
(define-fun .def_1613 () Bool (or .def_1590 .def_1612))
(define-fun .def_1607 () Bool (= call_peterson.ite27 call_peterson.ite28))
(define-fun .def_1608 () Bool (or param_e01 .def_1607))
(define-fun .def_1604 () Bool (= call_peterson.ite25 call_peterson.ite28))
(define-fun .def_1605 () Bool (or .def_1590 .def_1604))
(define-fun .def_1599 () Bool (= call_peterson.ite10 call_peterson.ite9))
(define-fun .def_1600 () Bool (or param_e01 .def_1599))
(define-fun .def_1595 () Bool (= call_peterson.ite5 call_peterson.ite10))
(define-fun .def_1596 () Bool (or .def_1590 .def_1595))
(define-fun .def_1589 () Bool (= call_peterson.ite4 call_peterson.ite))
(define-fun .def_1591 () Bool (or .def_1589 .def_1590))
(define-fun .def_1585 () Bool (= call_peterson.ite3 call_peterson.ite4))
(define-fun .def_1587 () Bool (or .def_1585 param_e01))
(define-fun .def_1592 () Bool (and .def_1587 .def_1591))
(define-fun .def_1597 () Bool (and .def_1592 .def_1596))
(define-fun .def_1601 () Bool (and .def_1597 .def_1600))
(define-fun .def_1606 () Bool (and .def_1601 .def_1605))
(define-fun .def_1609 () Bool (and .def_1606 .def_1608))
(define-fun .def_1614 () Bool (and .def_1609 .def_1613))
(define-fun .def_1617 () Bool (and .def_1614 .def_1616))
(define-fun .def_1625 () Bool (and .def_1617 .def_1624))
(define-fun .def_1659 () Bool (and .def_1625 .def_1658))
(define-fun .def_1667 () Bool (and .def_1659 .def_1666))
(define-fun .def_1685 () Bool (and .def_1667 .def_1684))
(define-fun .def_1692 () Bool (and .def_1685 .def_1691))
(define-fun .def_1699 () Bool (and .def_1692 .def_1698))
(define-fun .def_1703 () Bool (and .def_1699 .def_1702))
(define-fun .def_1706 () Bool (and .def_1703 .def_1705))
(define-fun .def_1741 () Bool (and .def_1706 .def_1740))
(define-fun .def_1745 () Bool (and .def_1741 .def_1744))
(define-fun .def_1749 () Bool (and .def_1745 .def_1748))
(define-fun .def_1753 () Bool (and .def_1749 .def_1752))
(define-fun .def_1757 () Bool (and .def_1753 .def_1756))
(define-fun .def_1761 () Bool (and .def_1757 .def_1760))
(define-fun .def_1765 () Bool (and .def_1761 .def_1764))
(define-fun .def_1769 () Bool (and .def_1765 .def_1768))
(define-fun .def_1773 () Bool (and .def_1769 .def_1772))
(define-fun .def_1777 () Bool (and .def_1773 .def_1776))
(define-fun .def_1781 () Bool (and .def_1777 .def_1780))
(define-fun .def_1797 () Bool (and .def_1781 .def_1796))
(define-fun .def_1801 () Bool (and .def_1797 .def_1800))
(define-fun .def_1805 () Bool (and .def_1801 .def_1804))
(define-fun .def_1808 () Bool (and .def_1805 .def_1807))
(define-fun .def_1816 () Bool (and .def_1808 .def_1815))
(define-fun .def_1833 () Bool (and .def_1816 .def_1832))
(define-fun .def_1835 () Bool (and .def_1833 .def_1834))
(define-fun .def_1837 () Bool (and .def_1835 .def_1836))
(define-fun .def_1839 () Bool (and .def_1837 .def_1838))
(define-fun .def_1841 () Bool (and .def_1839 .def_1840))
(define-fun .def_1843 () Bool (and .def_1841 .def_1842))
(define-fun .def_1845 () Bool (and .def_1843 .def_1844))
(define-fun .def_1847 () Bool (and .def_1845 .def_1846))
(define-fun .def_1849 () Bool (and .def_1847 .def_1848))
(define-fun .def_1851 () Bool (and .def_1849 .def_1850))
(define-fun .def_1853 () Bool (and .def_1851 .def_1852))
(define-fun .def_1855 () Bool (and .def_1853 .def_1854))
(define-fun .def_1857 () Bool (and .def_1855 .def_1856))
(define-fun .def_1859 () Bool (and .def_1857 .def_1858))
(define-fun .def_1861 () Bool (and .def_1859 .def_1860))
(define-fun .def_1963 () Bool (and .def_1861 .def_1962))
(define-fun .def_1965 () Bool (and .def_1963 .def_1964))
(define-fun .def_1577 () Bool (<= 32767 x1))
(define-fun .def_1578 () Bool (not .def_1577))
(define-fun .def_1580 () Bool (and .def_1578 call_excludes12.excludes))
(define-fun .def_1582 () Bool (= .def_1580 call_Sofar.flby))
(define-fun .def_1574 () Bool (= call_peterson.flby6 0))
(define-fun .def_1571 () Bool (= call_peterson.flby5 1))
(define-fun .def_1568 () Bool (= call_peterson.flby4 0))
(define-fun .def_1565 () Bool (= call_peterson.flby3 0))
(define-fun .def_1562 () Bool (= call_peterson.flby2 0))
(define-fun .def_1559 () Bool (= call_peterson.flby 1))
(define-fun .def_1556 () Bool (= call_peterson.flby14 0))
(define-fun .def_1553 () Bool (= call_peterson.flby13 0))
(define-fun .def_1550 () Bool (= call_peterson.flby12 0))
(define-fun .def_1547 () Bool (= call_peterson.flby11 1))
(define-fun .def_1544 () Bool (= call_peterson.flby10 1))
(define-fun .def_1541 () Bool (= call_peterson.flby9 0))
(define-fun .def_1538 () Bool (= call_peterson.flby8 1))
(define-fun .def_1535 () Bool (= call_peterson.flby7 0))
(define-fun .def_1529 () Bool (= call_peterson.ite55 call_peterson.ite56))
(define-fun .def_1532 () Bool (or .def_1529 .def_1531))
(define-fun .def_1523 () Bool (= call_peterson.ite38 call_peterson.ite39))
(define-fun .def_1524 () Bool (or .def_1519 .def_1523))
(define-fun .def_1517 () Bool (= call_peterson.ite34 call_peterson.ite35))
(define-fun .def_1520 () Bool (or .def_1517 .def_1519))
(define-fun .def_1525 () Bool (and .def_1520 .def_1524))
(define-fun .def_1511 () Bool (= call_peterson.ite30 call_peterson.ite31))
(define-fun .def_1512 () Bool (or .def_1497 .def_1511))
(define-fun .def_1506 () Bool (= call_peterson.ite26 call_peterson.ite27))
(define-fun .def_1507 () Bool (or .def_1497 .def_1506))
(define-fun .def_1501 () Bool (= call_peterson.ite2 call_peterson.ite3))
(define-fun .def_1502 () Bool (or .def_1497 .def_1501))
(define-fun .def_1495 () Bool (= call_peterson.ite21 call_peterson.ite22))
(define-fun .def_1498 () Bool (or .def_1495 .def_1497))
(define-fun .def_1503 () Bool (and .def_1498 .def_1502))
(define-fun .def_1508 () Bool (and .def_1503 .def_1507))
(define-fun .def_1513 () Bool (and .def_1508 .def_1512))
(define-fun .def_1488 () Bool (= call_peterson.ite14 call_peterson.ite15))
(define-fun .def_1491 () Bool (or .def_1488 .def_1490))
(define-fun .def_1481 () Bool (= call_peterson.ite7 call_peterson.ite8))
(define-fun .def_1484 () Bool (or .def_1481 .def_1483))
(define-fun .def_1474 () Bool (= call_peterson.ite62 call_peterson.ite63))
(define-fun .def_1477 () Bool (or .def_1474 .def_1476))
(define-fun .def_1469 () Bool (= call_peterson.ite69 call_peterson.ite70))
(define-fun .def_1470 () Bool (or .def_1455 .def_1469))
(define-fun .def_1464 () Bool (= call_peterson.ite50 call_peterson.ite51))
(define-fun .def_1465 () Bool (or .def_1455 .def_1464))
(define-fun .def_1459 () Bool (= call_peterson.ite42 call_peterson.ite43))
(define-fun .def_1460 () Bool (or .def_1455 .def_1459))
(define-fun .def_1453 () Bool (= call_peterson.ite46 call_peterson.ite47))
(define-fun .def_1456 () Bool (or .def_1453 .def_1455))
(define-fun .def_1461 () Bool (and .def_1456 .def_1460))
(define-fun .def_1466 () Bool (and .def_1461 .def_1465))
(define-fun .def_1471 () Bool (and .def_1466 .def_1470))
(define-fun .def_1478 () Bool (and .def_1471 .def_1477))
(define-fun .def_1485 () Bool (and .def_1478 .def_1484))
(define-fun .def_1492 () Bool (and .def_1485 .def_1491))
(define-fun .def_1514 () Bool (and .def_1492 .def_1513))
(define-fun .def_1526 () Bool (and .def_1514 .def_1525))
(define-fun .def_1533 () Bool (and .def_1526 .def_1532))
(define-fun .def_1536 () Bool (and .def_1533 .def_1535))
(define-fun .def_1539 () Bool (and .def_1536 .def_1538))
(define-fun .def_1542 () Bool (and .def_1539 .def_1541))
(define-fun .def_1545 () Bool (and .def_1542 .def_1544))
(define-fun .def_1548 () Bool (and .def_1545 .def_1547))
(define-fun .def_1551 () Bool (and .def_1548 .def_1550))
(define-fun .def_1554 () Bool (and .def_1551 .def_1553))
(define-fun .def_1557 () Bool (and .def_1554 .def_1556))
(define-fun .def_1560 () Bool (and .def_1557 .def_1559))
(define-fun .def_1563 () Bool (and .def_1560 .def_1562))
(define-fun .def_1566 () Bool (and .def_1563 .def_1565))
(define-fun .def_1569 () Bool (and .def_1566 .def_1568))
(define-fun .def_1572 () Bool (and .def_1569 .def_1571))
(define-fun .def_1575 () Bool (and .def_1572 .def_1574))
(define-fun .def_1583 () Bool (and .def_1575 .def_1582))
(define-fun .def_1966 () Bool (and .def_1583 .def_1965))
(assert .def_1966)
